0000000000000000
0000000000000000
0000011000000000
0001111111010000
0000000111100000
0000000001100000
0000000001100000
0000000001100000
0000000001100000
0000000001100000
0000000011101000
0000010100110000
0000111010110000
0000110100110000
0001000000100000
0000000000000000
